
Gurobi 13.0.0 (linux64) logging started Sun Jan 18 14:17:33 2026

Set parameter LogFile to value "../experiments/network-n_60_s_2_rp_0-app_set-id_54_23_apps/submip_40_epr1_model_gurobi.log"
Set parameter TimeLimit to value 773.793889084016
Gurobi Optimizer version 13.0.0 build v13.0.0rc1 (linux64 - "Ubuntu 24.04.3 LTS")

CPU model: Intel(R) Core(TM) Ultra 7 165H, instruction set [SSE2|AVX|AVX2]
Thread count: 22 physical cores, 22 logical processors, using up to 22 threads

Non-default parameters:
TimeLimit  773.793889084016
LogToConsole  0

Academic license 2539022 - for non-commercial use only - registered to al___@studenti.unimi.it
Optimize a model with 56192 rows, 9000 columns and 125274 nonzeros (Min)
Model fingerprint: 0xb3aaebf3
Model has 9000 linear objective coefficients
Model has 190 quadratic constraints
Variable types: 0 continuous, 9000 integer (9000 binary)
Coefficient statistics:
  Matrix range     [1e+00, 9e+02]
  QMatrix range    [5e+01, 2e+02]
  Objective range  [1e+01, 2e+02]
  Bounds range     [1e+00, 1e+00]
  RHS range        [1e+00, 1e+09]
  QRHS range       [1e+02, 6e+02]
Presolve removed 55515 rows and 6912 columns
Presolve time: 0.11s
Presolved: 20374 rows, 21599 columns, 130444 nonzeros
Variable types: 0 continuous, 21599 integer (21599 binary)
Performing another presolve...
Presolve removed 542 rows and 753 columns
Presolve time: 0.32s
Deterministic concurrent LP optimizer: primal and dual simplex
Showing primal log only...

Concurrent spin time: 0.00s

Solved with dual simplex

Root relaxation: objective 5.406479e+03, 2733 iterations, 0.45 seconds (0.40 work units)

    Nodes    |    Current Node    |     Objective Bounds      |     Work
 Expl Unexpl |  Obj  Depth IntInf | Incumbent    BestBd   Gap | It/Node Time

     0     0 5406.47921    0  157          - 5406.47921      -     -    1s
     0     0 5409.19261    0  168          - 5409.19261      -     -    1s
     0     0 5439.88080    0  179          - 5439.88080      -     -    2s
     0     0 5500.85290    0  183          - 5500.85290      -     -    2s
     0     0 5535.64498    0  190          - 5535.64498      -     -    3s
     0     0 5539.09617    0  208          - 5539.09617      -     -    3s
     0     0 5539.43081    0  210          - 5539.43081      -     -    3s
     0     0 5539.43781    0  214          - 5539.43781      -     -    3s
     0     0 5564.58696    0  213          - 5564.58696      -     -    4s
     0     0 5579.07697    0  234          - 5579.07697      -     -    4s
     0     0 5590.67840    0  240          - 5590.67840      -     -    5s
     0     0 5601.71672    0  251          - 5601.71672      -     -    5s
     0     0 5602.31854    0  258          - 5602.31854      -     -    5s
     0     0 5642.99354    0  265          - 5642.99354      -     -    6s
     0     0 5662.56874    0  274          - 5662.56874      -     -    7s
     0     0 5666.62593    0  293          - 5666.62593      -     -    7s
     0     0 5690.70813    0  296          - 5690.70813      -     -    9s
     0     0 5690.73531    0  293          - 5690.73531      -     -    9s
     0     0 5690.73531    0  290          - 5690.73531      -     -    9s
     0     2 5691.95114    0  288          - 5691.95114      -     -   11s
    27    40 5761.91875    6  274          - 5758.97578      -   443   15s
   287   116 infeasible   12               - 5774.17585      -   272   20s

Cutting planes:
  Gomory: 1
  Cover: 62
  Clique: 42
  MIR: 65
  Knapsack: 15
  StrongCG: 43
  GUB cover: 8
  Zero half: 11
  RLT: 59
  Relax-and-lift: 70
  BQP: 17

Explored 596 nodes (146750 simplex iterations) in 23.49 seconds (23.87 work units)
Thread count was 22 (of 22 available processors)

Solution count 0

Model is infeasible
Best objective -, best bound -, gap -

User-callback calls 2822, time in user-callback 0.01 sec
